p tw 24 36
1 3
1 5
1 13
2 12
2 16
2 21
3 18
3 19
4 9
4 10
4 17
5 8
5 11
6 7
6 20
6 21
7 8
7 12
8 18
9 10
9 20
10 15
11 14
11 24
12 23
13 14
13 17
14 24
15 16
15 22
16 23
17 22
18 19
19 24
20 23
21 22
